(set-logic LRA)
(declare-fun v0 () Bool)
(declare-fun v1 () Bool)
(declare-fun v2 () Bool)
(declare-fun r0 () Real)
(declare-fun r1 () Real)
(declare-fun r2 () Real)
(get-qe (forall ((q0 Bool) (q1 Bool) (q2 Real) (q3 Real) (q4 Bool) (q5 Bool) (q6 Bool) (q7 Real)) (and v2 (exists ((q0 Bool) (q1 Bool) (q2 Real) (q3 Real) (q4 Bool) (q5 Bool) (q6 Bool) (q7 Real)) v1) v2 v1 v0)))
(declare-fun v3 () Bool)
(declare-fun r5 () Real)
(get-qe (forall ((q8 Bool) (q9 Bool) (q10 Bool) (q11 Bool) (q12 Bool) (q13 Real) (q14 Real) (q15 Real)) (and v0 (forall ((q8 Bool) (q9 Bool) (q10 Bool) (q11 Bool) (q12 Bool) (q13 Real) (q14 Real) (q15 Real)) (=> (distinct q13 q15 r1 q13 (- r2 1.434123655 r5)) (distinct v2 v0 q12 q8 q9 v3 q11 (<= r2 r2 r2 r5 r5 r0) q10 (>= r0 r0 r0)))) v1 v0 v2)))
